% Logging successfully configured
%%%mzn-stat: initTime=0.007027856
%%%mzn-stat: objective=444
%%%mzn-stat: nodes=106
%%%mzn-stat: restarts=0
%%%mzn-stat: peakDepth=105
%%%mzn-stat: solveTime=0.000941024
%%%mzn-stat: variables=278
%%%mzn-stat: propagators=181
%%%mzn-stat: failures=1
%%%mzn-stat: propagations=635
%%%mzn-stat: nogoods=1
%%%mzn-stat: numAtomicConstraintsPropagated=0
%%%mzn-stat: circuitNumber1PropagationsTotal=34
%%%mzn-stat: circuitNumber1CircuitConflicts=0
%%%mzn-stat: circuitNumber1AlldiffConflicts=0
%%%mzn-stat: circuitNumber1TotalFixedEdgesAtConflict=0
%%%mzn-stat: circuitNumber1NumberOfConflicts=0
%%%mzn-stat: circuitNumber1GacPrunings=63
%%%mzn-stat: circuitNumber1PropagationsThatGacPruned=17
%%%mzn-stat: circuitNumber1TotalPruningHallSetSize=151
%%%mzn-stat: circuitNumber1NumberOfPruningExplanations=63
%%%mzn-stat: circuitNumber1MaxPruningHallSetSize=10
%%%mzn-stat: circuitNumber1TotalSccSizeAtPruning=65
%%%mzn-stat: circuitNumber1NumberOfSccPruningCalls=17
%%%mzn-stat: circuitNumber1TotalVarsInvolvedInPruning=57
%%%mzn-stat: circuitNumber1MaxValuesPrunedFromSingleVar=5
%%%mzn-stat: circuitNumber1HallCircuitChecks=41
%%%mzn-stat: circuitNumber1HallCircuitPrunings=1
%%%mzn-stat: circuitNumber1CircuitPreventPrunings=15
%%%mzn-stat: AverageConflictSize=5
%%%mzn-stat: NumUnitNogoodsLearned=0
%%%mzn-stat: AverageLearnedNogoodLength=11
%%%mzn-stat: AverageBacktrackAmount=0
%%%mzn-stat: AverageLbd=8
%%%mzn-stat: 2AutonomousSearchNumBackupCalled=91
%%%mzn-stat: 2AutonomousSearchNumPredicatesRemoved=0
%%%mzn-stat: 2AutonomousSearchNumCalls=92
%%%mzn-stat: 2AutonomousSearchNumPredicatesAdded=64
%%%mzn-stat: 2AutonomousSearchAverageSizeOfHeap=0.6956521739130435
%%%mzn-stat: 2AutonomousSearchNumAssignedPredicatesEncountered=64
%%%mzn-stat-end
maxleg = 444;
succ = array1d(1..20,[4, 6, 5, 14, 7, 8, 9, 11, 12, 18, 10, 16, 3, 15, 17, 20, 2, 19, 13, 1]);
% time elapsed: 0.32 s
----------
%%%mzn-stat: initTime=0.007027856
%%%mzn-stat: objective=412
%%%mzn-stat: nodes=210
%%%mzn-stat: restarts=0
%%%mzn-stat: peakDepth=105
%%%mzn-stat: solveTime=0.002055971
%%%mzn-stat: variables=278
%%%mzn-stat: propagators=181
%%%mzn-stat: failures=4
%%%mzn-stat: propagations=1045
%%%mzn-stat: nogoods=4
%%%mzn-stat: numAtomicConstraintsPropagated=0
%%%mzn-stat: circuitNumber1PropagationsTotal=74
%%%mzn-stat: circuitNumber1CircuitConflicts=2
%%%mzn-stat: circuitNumber1AlldiffConflicts=0
%%%mzn-stat: circuitNumber1TotalFixedEdgesAtConflict=23
%%%mzn-stat: circuitNumber1NumberOfConflicts=2
%%%mzn-stat: circuitNumber1GacPrunings=141
%%%mzn-stat: circuitNumber1PropagationsThatGacPruned=36
%%%mzn-stat: circuitNumber1TotalPruningHallSetSize=412
%%%mzn-stat: circuitNumber1NumberOfPruningExplanations=141
%%%mzn-stat: circuitNumber1MaxPruningHallSetSize=12
%%%mzn-stat: circuitNumber1TotalSccSizeAtPruning=194
%%%mzn-stat: circuitNumber1NumberOfSccPruningCalls=36
%%%mzn-stat: circuitNumber1TotalVarsInvolvedInPruning=121
%%%mzn-stat: circuitNumber1MaxValuesPrunedFromSingleVar=5
%%%mzn-stat: circuitNumber1HallCircuitChecks=79
%%%mzn-stat: circuitNumber1HallCircuitPrunings=2
%%%mzn-stat: circuitNumber1CircuitPreventPrunings=32
%%%mzn-stat: AverageConflictSize=3.5
%%%mzn-stat: NumUnitNogoodsLearned=0
%%%mzn-stat: AverageLearnedNogoodLength=21
%%%mzn-stat: AverageBacktrackAmount=0
%%%mzn-stat: AverageLbd=8.25
%%%mzn-stat: 2AutonomousSearchNumBackupCalled=179
%%%mzn-stat: 2AutonomousSearchNumPredicatesRemoved=0
%%%mzn-stat: 2AutonomousSearchNumCalls=181
%%%mzn-stat: 2AutonomousSearchNumPredicatesAdded=170
%%%mzn-stat: 2AutonomousSearchAverageSizeOfHeap=1.1767955801104972
%%%mzn-stat: 2AutonomousSearchNumAssignedPredicatesEncountered=213
%%%mzn-stat-end
maxleg = 412;
succ = array1d(1..20,[4, 6, 5, 14, 7, 10, 9, 15, 12, 11, 18, 16, 3, 8, 17, 20, 2, 19, 13, 1]);
% time elapsed: 0.32 s
----------
%%%mzn-stat: initTime=0.007027856
%%%mzn-stat: objective=403
%%%mzn-stat: nodes=313
%%%mzn-stat: restarts=0
%%%mzn-stat: peakDepth=105
%%%mzn-stat: solveTime=0.003287143
%%%mzn-stat: variables=278
%%%mzn-stat: propagators=181
%%%mzn-stat: failures=8
%%%mzn-stat: propagations=1461
%%%mzn-stat: nogoods=8
%%%mzn-stat: numAtomicConstraintsPropagated=0
%%%mzn-stat: circuitNumber1PropagationsTotal=115
%%%mzn-stat: circuitNumber1CircuitConflicts=4
%%%mzn-stat: circuitNumber1AlldiffConflicts=0
%%%mzn-stat: circuitNumber1TotalFixedEdgesAtConflict=46
%%%mzn-stat: circuitNumber1NumberOfConflicts=4
%%%mzn-stat: circuitNumber1GacPrunings=225
%%%mzn-stat: circuitNumber1PropagationsThatGacPruned=56
%%%mzn-stat: circuitNumber1TotalPruningHallSetSize=746
%%%mzn-stat: circuitNumber1NumberOfPruningExplanations=225
%%%mzn-stat: circuitNumber1MaxPruningHallSetSize=12
%%%mzn-stat: circuitNumber1TotalSccSizeAtPruning=337
%%%mzn-stat: circuitNumber1NumberOfSccPruningCalls=56
%%%mzn-stat: circuitNumber1TotalVarsInvolvedInPruning=188
%%%mzn-stat: circuitNumber1MaxValuesPrunedFromSingleVar=5
%%%mzn-stat: circuitNumber1HallCircuitChecks=116
%%%mzn-stat: circuitNumber1HallCircuitPrunings=3
%%%mzn-stat: circuitNumber1CircuitPreventPrunings=50
%%%mzn-stat: AverageConflictSize=3.125
%%%mzn-stat: NumUnitNogoodsLearned=0
%%%mzn-stat: AverageLearnedNogoodLength=22.5
%%%mzn-stat: AverageBacktrackAmount=0
%%%mzn-stat: AverageLbd=8.375
%%%mzn-stat: 2AutonomousSearchNumBackupCalled=266
%%%mzn-stat: 2AutonomousSearchNumPredicatesRemoved=0
%%%mzn-stat: 2AutonomousSearchNumCalls=269
%%%mzn-stat: 2AutonomousSearchNumPredicatesAdded=292
%%%mzn-stat: 2AutonomousSearchAverageSizeOfHeap=1.4312267657992566
%%%mzn-stat: 2AutonomousSearchNumAssignedPredicatesEncountered=385
%%%mzn-stat-end
maxleg = 403;
succ = array1d(1..20,[4, 6, 5, 16, 7, 10, 9, 15, 12, 11, 18, 20, 3, 8, 17, 14, 2, 19, 13, 1]);
% time elapsed: 0.32 s
----------
%%%mzn-stat: initTime=0.007027856
%%%mzn-stat: objective=388
%%%mzn-stat: nodes=409
%%%mzn-stat: restarts=0
%%%mzn-stat: peakDepth=105
%%%mzn-stat: solveTime=0.004792436
%%%mzn-stat: variables=278
%%%mzn-stat: propagators=181
%%%mzn-stat: failures=13
%%%mzn-stat: propagations=1948
%%%mzn-stat: nogoods=13
%%%mzn-stat: numAtomicConstraintsPropagated=0
%%%mzn-stat: circuitNumber1PropagationsTotal=173
%%%mzn-stat: circuitNumber1CircuitConflicts=8
%%%mzn-stat: circuitNumber1AlldiffConflicts=0
%%%mzn-stat: circuitNumber1TotalFixedEdgesAtConflict=109
%%%mzn-stat: circuitNumber1NumberOfConflicts=8
%%%mzn-stat: circuitNumber1GacPrunings=315
%%%mzn-stat: circuitNumber1PropagationsThatGacPruned=88
%%%mzn-stat: circuitNumber1TotalPruningHallSetSize=964
%%%mzn-stat: circuitNumber1NumberOfPruningExplanations=315
%%%mzn-stat: circuitNumber1MaxPruningHallSetSize=12
%%%mzn-stat: circuitNumber1TotalSccSizeAtPruning=457
%%%mzn-stat: circuitNumber1NumberOfSccPruningCalls=88
%%%mzn-stat: circuitNumber1TotalVarsInvolvedInPruning=267
%%%mzn-stat: circuitNumber1MaxValuesPrunedFromSingleVar=5
%%%mzn-stat: circuitNumber1HallCircuitChecks=190
%%%mzn-stat: circuitNumber1HallCircuitPrunings=5
%%%mzn-stat: circuitNumber1CircuitPreventPrunings=78
%%%mzn-stat: AverageConflictSize=5.538461538461538
%%%mzn-stat: NumUnitNogoodsLearned=0
%%%mzn-stat: AverageLearnedNogoodLength=19.076923076923077
%%%mzn-stat: AverageBacktrackAmount=0
%%%mzn-stat: AverageLbd=7.615384615384615
%%%mzn-stat: 2AutonomousSearchNumBackupCalled=348
%%%mzn-stat: 2AutonomousSearchNumPredicatesRemoved=0
%%%mzn-stat: 2AutonomousSearchNumCalls=352
%%%mzn-stat: 2AutonomousSearchNumPredicatesAdded=474
%%%mzn-stat: 2AutonomousSearchAverageSizeOfHeap=2
%%%mzn-stat: 2AutonomousSearchNumAssignedPredicatesEncountered=704
%%%mzn-stat-end
maxleg = 388;
succ = array1d(1..20,[4, 6, 5, 16, 7, 10, 18, 15, 3, 19, 8, 9, 1, 20, 17, 14, 2, 11, 13, 12]);
% time elapsed: 0.32 s
----------
%%%mzn-stat: initTime=0.007027856
%%%mzn-stat: objective=381
%%%mzn-stat: nodes=502
%%%mzn-stat: restarts=0
%%%mzn-stat: peakDepth=105
%%%mzn-stat: solveTime=0.006371326
%%%mzn-stat: variables=278
%%%mzn-stat: propagators=181
%%%mzn-stat: failures=18
%%%mzn-stat: propagations=2490
%%%mzn-stat: nogoods=18
%%%mzn-stat: numAtomicConstraintsPropagated=0
%%%mzn-stat: circuitNumber1PropagationsTotal=233
%%%mzn-stat: circuitNumber1CircuitConflicts=12
%%%mzn-stat: circuitNumber1AlldiffConflicts=0
%%%mzn-stat: circuitNumber1TotalFixedEdgesAtConflict=154
%%%mzn-stat: circuitNumber1NumberOfConflicts=12
%%%mzn-stat: circuitNumber1GacPrunings=409
%%%mzn-stat: circuitNumber1PropagationsThatGacPruned=122
%%%mzn-stat: circuitNumber1TotalPruningHallSetSize=1319
%%%mzn-stat: circuitNumber1NumberOfPruningExplanations=409
%%%mzn-stat: circuitNumber1MaxPruningHallSetSize=15
%%%mzn-stat: circuitNumber1TotalSccSizeAtPruning=690
%%%mzn-stat: circuitNumber1NumberOfSccPruningCalls=122
%%%mzn-stat: circuitNumber1TotalVarsInvolvedInPruning=350
%%%mzn-stat: circuitNumber1MaxValuesPrunedFromSingleVar=7
%%%mzn-stat: circuitNumber1HallCircuitChecks=258
%%%mzn-stat: circuitNumber1HallCircuitPrunings=8
%%%mzn-stat: circuitNumber1CircuitPreventPrunings=111
%%%mzn-stat: AverageConflictSize=5
%%%mzn-stat: NumUnitNogoodsLearned=0
%%%mzn-stat: AverageLearnedNogoodLength=18.27777777777778
%%%mzn-stat: AverageBacktrackAmount=0
%%%mzn-stat: AverageLbd=6.444444444444445
%%%mzn-stat: 2AutonomousSearchNumBackupCalled=428
%%%mzn-stat: 2AutonomousSearchNumPredicatesRemoved=0
%%%mzn-stat: 2AutonomousSearchNumCalls=433
%%%mzn-stat: 2AutonomousSearchNumPredicatesAdded=606
%%%mzn-stat: 2AutonomousSearchAverageSizeOfHeap=2.4364896073903
%%%mzn-stat: 2AutonomousSearchNumAssignedPredicatesEncountered=1055
%%%mzn-stat-end
maxleg = 381;
succ = array1d(1..20,[4, 11, 5, 16, 9, 8, 3, 15, 12, 6, 18, 20, 19, 1, 17, 13, 2, 7, 10, 14]);
% time elapsed: 0.32 s
----------
==========
% time elapsed: 0.32 s
%%%mzn-stat: initTime=0.007027856
%%%mzn-stat: objective=381
%%%mzn-stat: nodes=502
%%%mzn-stat: restarts=0
%%%mzn-stat: peakDepth=105
%%%mzn-stat: solveTime=0.006515039
%%%mzn-stat: variables=278
%%%mzn-stat: propagators=181
%%%mzn-stat: failures=19
%%%mzn-stat: propagations=2562
%%%mzn-stat: nogoods=19
%%%mzn-stat: numAtomicConstraintsPropagated=0
%%%mzn-stat: circuitNumber1PropagationsTotal=234
%%%mzn-stat: circuitNumber1CircuitConflicts=12
%%%mzn-stat: circuitNumber1AlldiffConflicts=0
%%%mzn-stat: circuitNumber1TotalFixedEdgesAtConflict=154
%%%mzn-stat: circuitNumber1NumberOfConflicts=12
%%%mzn-stat: circuitNumber1GacPrunings=419
%%%mzn-stat: circuitNumber1PropagationsThatGacPruned=123
%%%mzn-stat: circuitNumber1TotalPruningHallSetSize=1419
%%%mzn-stat: circuitNumber1NumberOfPruningExplanations=419
%%%mzn-stat: circuitNumber1MaxPruningHallSetSize=19
%%%mzn-stat: circuitNumber1TotalSccSizeAtPruning=727
%%%mzn-stat: circuitNumber1NumberOfSccPruningCalls=123
%%%mzn-stat: circuitNumber1TotalVarsInvolvedInPruning=356
%%%mzn-stat: circuitNumber1MaxValuesPrunedFromSingleVar=7
%%%mzn-stat: circuitNumber1HallCircuitChecks=259
%%%mzn-stat: circuitNumber1HallCircuitPrunings=8
%%%mzn-stat: circuitNumber1CircuitPreventPrunings=112
%%%mzn-stat: AverageConflictSize=4.842105263157895
%%%mzn-stat: NumUnitNogoodsLearned=1
%%%mzn-stat: AverageLearnedNogoodLength=17.36842105263158
%%%mzn-stat: AverageBacktrackAmount=0
%%%mzn-stat: AverageLbd=6.157894736842105
%%%mzn-stat: 2AutonomousSearchNumBackupCalled=428
%%%mzn-stat: 2AutonomousSearchNumPredicatesRemoved=0
%%%mzn-stat: 2AutonomousSearchNumCalls=433
%%%mzn-stat: 2AutonomousSearchNumPredicatesAdded=726
%%%mzn-stat: 2AutonomousSearchAverageSizeOfHeap=2.4364896073903
%%%mzn-stat: 2AutonomousSearchNumAssignedPredicatesEncountered=1055
%%%mzn-stat-end
